
  32    4
  10   10   10   10

   0   0   0   0   0   7 2 3 4 6 10 12 14 
   7   1   0   1   1   3 13 9 5 
   9   4   1   5   0   6 22 19 16 15 11 9 
   8   5   3   6   0   5 22 15 13 11 8 
   7   6   0   2   5   7 31 30 22 19 17 16 11 
   1   6   3   3   0   3 17 15 7 
   2   3   0   6   2   8 31 30 29 22 21 20 19 18 
   1   4   3   0   5   6 30 29 28 21 20 19 
   4   4   0   3   4   5 31 30 21 20 17 
   3   0   6   5   2   4 22 21 18 17 
   6   4   0   4   2   4 24 21 20 18 
   5   2   3   0   6   4 31 30 22 18 
   5   0   3   4   4   4 31 30 24 20 
   1   4   5   8   0   3 24 22 18 
   8   0   6   2   5   3 28 24 20 
   6   7   5   0   6   3 29 21 20 
   9   0   3   2   5   4 29 28 25 23 
   8   3   4   4   0   3 28 25 23 
   6   4   5   4   0   3 27 26 24 
   8   0   5   5   4   2 25 23 
   8   3   4   4   0   3 27 26 25 
   7   1   0   7   2   3 27 26 25 
   8   4   0   3   3   2 27 26 
   6   4   1   0   7   1 25 
   5   4   7   9   0   1 32
   1   0   4   1   2   1 32
   8   0   7   3   2   1 32
   5   0   4   4   2   1 32
   4   0   1   3   6   1 32
   4   7   4   0   9   1 32
   4   4   5   2   0   1 32
   0   0   0   0   0   0 
